NAME          ADLITTLE
ROWS
 N  .Z....  
 L  ....01  
 E  ....02  
 L  ....03  
 L  ....04  
 L  ....05  
 L  ....06  
 L  ....07  
 L  ....08  
 L  ....09  
 E  ....10  
 L  ....11  
 L  ....12  
 L  ....13  
 L  ....14  
 L  ....15  
 L  ....16  
 L  ....17  
 L  ....18  
 L  ....19  
 L  ....20  
 L  ....21  
 L  ....22  
 L  ....23  
 L  ....24  
 E  ....25  
 L  ....26  
 L  ....27  
 E  ....28  
 L  ....29  
 L  ....30  
 E  ....31  
 E  ....32  
 E  ....33  
 L  ....34  
 L  ....35  
 E  ....36  
 L  ....37  
 L  ....38  
 L  ....39  
 E  ....40  
 L  ....41  
 E  ....42  
 E  ....43  
 E  ....44  
 L  ....45  
 L  ....46  
 L  ....47  
 L  ....48  
 E  ....49  
 E  ....50  
 G  ....51  
 L  ....52  
 L  ....53  
 E  ....54  
 L  ....55  
 L  ....56  
COLUMNS
    ...100    .Z....     -3280.00000   ....01         0.50600
    ...100    ....04         1.00000   ....05         0.18200
    ...100    ....55         0.31200
    ...101    .Z....     -3280.00000   ....01         0.63800
    ...101    ....04         1.00000   ....05         0.05000
    ...101    ....55         0.31200
    ...102    .Z....      3310.00000   ....01        -1.00000
    ...103    .Z....     -1890.00000   ....05         0.92000
    ...103    ....30         1.00000   ....49        -9.50000
    ...103    ....52        -0.04200   ....53        -0.06300
    ...103    ....55         0.08000
    ...104    ....34         0.82500   ....35         0.17500
    ...104    ....40         1.00000   ....51        16.00000
    ...105    ....35         0.17500   ....40         1.00000
    ...105    ....46         0.82500   ....51        21.00000
    ...106    .Z....     -1890.00000   ....06         1.00000
    ...106    ....30         1.00000   ....49         3.60000
    ...106    ....52        -0.04200   ....53        -0.06300
    ...107    .Z....      -903.00000   ....06         1.00000
    ...107    ....38         1.00000
    ...108    ....06         1.00000   ....50        -0.80000
    ...109    .Z....       432.00000   ....31        -1.23000
    ...109    ....42         0.23000
    ...110    .Z....       432.00000   ....32        -1.23000
    ...110    ....43         0.23000   ....56         1.00000
    ...111    .Z....       432.00000   ....33        -1.23000
    ...111    ....44         0.23000   ....56         1.00000
    ...112    .Z....       446.00000   ....07         1.00000
    ...112    ....31        -1.00000
    ...113    .Z....       446.00000   ....07         1.00000
    ...113    ....32        -1.00000
    ...114    .Z....       446.00000   ....07         1.00000
    ...114    ....33        -1.00000
    ...115    .Z....       450.00000   ....08         1.00000
    ...115    ....31        -0.95000   ....42        -0.05000
    ...116    .Z....       450.00000   ....08         1.00000
    ...116    ....32        -0.95000   ....43        -0.05000
    ...117    .Z....       450.00000   ....08         1.00000
    ...117    ....33        -0.95000   ....44        -0.05000
    ...118    .Z....       459.00000   ....09         1.00000
    ...118    ....31        -0.79000   ....42        -0.21000
    ...119    .Z....       459.00000   ....09         1.00000
    ...119    ....32        -0.79000   ....43        -0.21000
    ...120    .Z....       459.00000   ....09         1.00000
    ...120    ....33        -0.79000   ....44        -0.21000
    ...121    .Z....       483.00000   ....11         1.00000
    ...121    ....31        -0.42000   ....42        -0.58000
    ...122    .Z....       483.00000   ....11         1.00000
    ...122    ....32        -0.42000   ....43        -0.58000
    ...123    .Z....       483.00000   ....11         1.00000
    ...123    ....33        -0.42000   ....44        -0.58000
    ...124    .Z....       500.00000   ....12         1.00000
    ...124    ....31        -0.05000   ....42        -0.95000
    ...125    .Z....       500.00000   ....12         1.00000
    ...125    ....32        -0.05000   ....43        -0.95000
    ...126    .Z....       500.00000   ....12         1.00000
    ...126    ....33        -0.05000   ....44        -0.95000
    ...127    .Z....       493.00000   ....13         1.00000
    ...127    ....31        -0.26000   ....42        -0.74000
    ...128    .Z....       493.00000   ....13         1.00000
    ...128    ....32        -0.26000   ....43        -0.74000
    ...129    .Z....       493.00000   ....13         1.00000
    ...129    ....33        -0.26000   ....44        -0.74000
    ...130    .Z....     -1890.00000   ....14         1.00000
    ...130    ....30         1.00000   ....49        -3.20000
    ...130    ....52        -0.04200   ....53        -0.06300
    ...131    .Z....      -903.00000   ....14         1.00000
    ...131    ....38         1.00000
    ...132    .Z....       506.00000   ....17         1.00000
    ...132    ....31         0.26000   ....42        -1.26000
    ...133    ....14         1.00000   ....50        -0.80000
    ...134    .Z....       506.00000   ....17         1.00000
    ...134    ....32         0.26000   ....43        -1.26000
    ...135    .Z....       506.00000   ....17         1.00000
    ...135    ....33         0.26000   ....44        -1.26000
    ...136    .Z....       505.00000   ....15         1.00000
    ...136    ....31         0.16000   ....42        -1.16000
    ...137    .Z....       505.00000   ....15         1.00000
    ...137    ....32         0.16000   ....43        -1.16000
    ...138    .Z....       505.00000   ....15         1.00000
    ...138    ....33         0.16000   ....44        -1.16000
    ...139    .Z....       499.00000   ....16         1.00000
    ...139    ....31        -0.16000   ....42        -0.84000
    ...140    .Z....       499.00000   ....16         1.00000
    ...140    ....32        -0.16000   ....43        -0.84000
    ...141    .Z....       499.00000   ....16         1.00000
    ...141    ....33        -0.16000   ....44        -0.84000
    ...142    ....10        -1.00000
    ...143    ....02         1.00000   ....03         0.79000
    ...143    ....10        37.00000   ....28         0.49400
    ...143    ....34         0.50600   ....54         2.27424
    ...144    ....02         1.00000   ....03         0.53000
    ...144    ....10        47.00000   ....28         0.49200
    ...144    ....46         0.50800   ....54         2.26320
    ...145    .Z....       512.00000   ....18         1.00000
    ...145    ....31         0.62000   ....42        -1.62000
    ...146    .Z....       512.00000   ....18         1.00000
    ...146    ....32         0.62000   ....43        -1.62000
    ...147    .Z....       512.00000   ....18         1.00000
    ...147    ....33         0.62000   ....44        -1.62000
    ...148    .Z....        70.90000   ....01        -0.24700
    ...148    ....06         0.17260   ....14        -0.31220
    ...148    ....20         1.78300   ....28         0.47030
    ...148    ....50        -0.09280   ....54         1.40015
    ...149    .Z....        39.80000   ....01        -0.15700
    ...149    ....14        -0.23990   ....20         1.00000
    ...149    ....28         0.42730   ....50        -0.03610
    ...149    ....54         1.20404
    ...150    .Z....        39.80000   ....01        -0.15700
    ...150    ....14        -0.27890   ....20         1.00000
    ...150    ....28         0.46630   ....50        -0.03610
    ...150    ....54         1.43498
    ...151    .Z....         2.04000   ....26         1.00000
    ...151    ....28         0.55000   ....50        -0.52000
    ...151    ....54         0.60000
    ...152    ....28         1.00000   ....50        -1.00000
    ...152    ....54         1.80000
    ...153    .Z....         1.80000   ....03        -0.33000
    ...153    ....21         1.00000   ....50         0.01700
    ...154    .Z....         1.80000   ....21         1.00000
    ...154    ....37        -0.33000
    ...155    .Z....     -2600.00000   ....01         0.20000
    ...155    ....14         0.73000   ....29         1.00000
    ...155    ....55         0.07000
    ...156    .Z....     -2600.00000   ....14         0.72000
    ...156    ....29         1.00000   ....47         0.20000
    ...156    ....55         0.08000
    ...157    .Z....        10.40000   ....02         1.00000
    ...157    ....03         0.25000   ....10        45.00000
    ...157    ....22         0.87500   ....28         0.36750
    ...157    ....34         0.63250   ....50         0.02536
    ...157    ....54         1.61400
    ...158    .Z....        10.40000   ....02         1.00000
    ...158    ....03         0.20000   ....10        55.00000
    ...158    ....22         0.87500   ....28         0.36500
    ...158    ....46         0.63500   ....50         0.02538
    ...158    ....54         1.59000
    ...159    .Z....        28.80000   ....19         1.00000
    ...159    ....28        -0.82800   ....31         1.00000
    ...159    ....34        -0.09500   ....35        -0.02000
    ...159    ....50         0.01200   ....54        -1.42000
    ...159    ....55        -0.04670
    ...160    .Z....        43.40000   ....01        -0.00220
    ...160    ....06        -0.01920   ....19         1.00000
    ...160    ....27         0.67900   ....28        -0.80800
    ...160    ....32         1.00000   ....34        -0.09500
    ...160    ....35        -0.02000   ....50         0.02050
    ...160    ....54        -1.84000   ....55        -0.04670
    ...161    .Z....        30.40000   ....01        -0.00220
    ...161    ....06        -0.01920   ....24         1.00000
    ...161    ....27         0.67900   ....28        -0.80800
    ...161    ....33         1.00000   ....34        -0.09500
    ...161    ....35        -0.02000   ....50         0.02050
    ...161    ....54        -1.84000   ....55        -0.04670
    ...162    ....28        -1.00000   ....34         1.00000
    ...162    ....54        -5.20000
    ...163    ....28        -1.00000   ....35         1.00000
    ...163    ....54        -6.70000
    ...164    .Z....     -1218.00000   ....35         1.00000
    ...164    ....48         1.00000
    ...165    ....35         1.00000   ....50        -0.80000
    ...166    ....28         0.48200   ....34         0.49800
    ...166    ....35         0.02000   ....36         1.00000
    ...166    ....37         0.79000   ....54         2.21700
    ...167    ....28         0.47400   ....35         0.02000
    ...167    ....36         1.00000   ....37         0.53000
    ...167    ....46         0.50600   ....54         2.18000
    ...168    .Z....     -1322.00000   ....06         0.07000
    ...168    ....35         0.10000   ....39         1.00000
    ...168    ....55         0.83000
    ...169    .Z....     -1322.00000   ....35         0.07000
    ...169    ....39         1.00000   ....46         0.33000
    ...169    ....55         0.60000
    ...170    .Z....     -1322.00000   ....34         0.33000
    ...170    ....35         0.07000   ....39         1.00000
    ...170    ....55         0.60000
    ...171    .Z....     -1660.00000   ....22         0.62500
    ...171    ....28        -0.12500   ....34         1.12500
    ...171    ....41         1.00000   ....50         0.01812
    ...171    ....54        -0.65000
    ...172    .Z....     -1670.00000   ....41         1.00000
    ...172    ....46         1.00000
    ...173    .Z....        14.80000   ....22         1.25000
    ...173    ....28        -0.25000   ....34         1.03125
    ...173    ....35         0.21875   ....40         1.00000
    ...173    ....50         0.03625   ....51        30.00000
    ...173    ....54        -1.36562
    ...174    .Z....        14.80000   ....22         1.25000
    ...174    ....28        -0.25000   ....35         0.21875
    ...174    ....40         1.00000   ....46         1.03125
    ...174    ....50         0.03625   ....51        35.00000
    ...174    ....54        -1.38375
    ...175    .Z....        28.80000   ....19         1.07200
    ...175    ....28        -0.70600   ....35        -0.02700
    ...175    ....42         1.00000   ....46        -0.12800
    ...175    ....50         0.01290   ....54        -1.61000
    ...175    ....55        -0.12030
    ...176    .Z....        43.00000   ....01        -0.00120
    ...176    ....06        -0.01590   ....19         1.07200
    ...176    ....27         0.53400   ....28        -0.69000
    ...176    ....35        -0.02700   ....43         1.00000
    ...176    ....46        -0.12800   ....50         0.01950
    ...176    ....54        -1.84000   ....55        -0.12030
    ...177    .Z....        30.00000   ....01        -0.00120
    ...177    ....06        -0.01590   ....24         1.00000
    ...177    ....27         0.53400   ....28        -0.69000
    ...177    ....35        -0.02700   ....44         1.00000
    ...177    ....46        -0.12800   ....50         0.01950
    ...177    ....54        -1.84000   ....55        -0.12030
    ...178    .Z....     -1763.00000   ....05         0.18100
    ...178    ....45         1.00000   ....47         0.11000
    ...178    ....55         0.70900
    ...179    .Z....     -1722.00000   ....05         0.05100
    ...179    ....45         1.00000   ....47         0.05500
    ...179    ....55         0.89400
    ...180    .Z....     -1680.00000   ....05         0.03600
    ...180    ....45         1.00000   ....55         0.96400
    ...181    ....28        -1.00000   ....46         1.00000
    ...181    ....54        -5.30000
    ...182    .Z....     -1890.00000   ....30         1.00000
    ...182    ....47         0.92000   ....49       -10.10000
    ...182    ....52        -0.04200   ....53        -0.06300
    ...182    ....55         0.08000
    ...183    .Z....      1780.00000   ....02         1.00000
    ...183    ....03         0.40000   ....10        45.00000
    ...184    .Z....      1600.00000   ....28        -1.00000
    ...184    ....54        -4.35000
    ...185    .Z....       903.00000   ....28        -1.00000
    ...185    ....54        -2.10000
    ...186    .Z....      1760.00000   ....36         1.00000
    ...186    ....37         0.80000
    ...187    .Z....      2100.00000   ....40         1.00000
    ...187    ....51        24.00000
    ...188    .Z....      1000.00000   ....49       -64.30000
    ...188    ....52         1.00000
    ...189    .Z....      1000.00000   ....49       -27.40000
    ...189    ....53         1.00000
    ...190    .Z....     -1890.00000   ....30         1.00000
    ...190    ....49         9.10000   ....52        -0.04200
    ...190    ....53        -0.06300   ....55         1.00000
    ...191    .Z....        92.10000   ....05        -0.36000
    ...191    ....23         1.00000   ....28        -0.02600
    ...191    ....47        -0.13400   ....50        -0.18200
    ...191    ....54        -0.17420   ....55         0.82600
    ...192    .Z....      -903.00000   ....38         1.00000
    ...192    ....55         1.00000
    ...193    .Z....        78.70000   ....55         1.00000
    ...194    .Z....     -1218.00000   ....48         1.00000
    ...194    ....55         1.00000
    ...195    .Z....        15.60000   ....05        -0.39600
    ...195    ....25         1.00000   ....28        -0.02900
    ...195    ....47        -0.14700   ....50        -0.11900
    ...195    ....54        -0.19400   ....55         0.81000
    ...196    ....50        -0.80000   ....55         1.00000
RHS
    ZZZZ0001  ....02        52.60000   ....03        22.70000
    ZZZZ0001  ....04        23.40000   ....07       108.00000
    ZZZZ0001  ....08        50.00000   ....09        13.00000
    ZZZZ0001  ....10      2366.00000   ....11       200.00000
    ZZZZ0001  ....12       265.00000   ....13       300.00000
    ZZZZ0001  ....15        31.00000   ....16        60.00000
    ZZZZ0001  ....17       134.00000   ....18        34.00000
    ZZZZ0001  ....19       413.00000   ....20        41.50000
    ZZZZ0001  ....21        15.00000   ....22        20.60000
    ZZZZ0001  ....23        13.50000   ....24       440.00000
    ZZZZ0001  ....26        16.00000   ....27       290.00000
    ZZZZ0001  ....28      -524.90000   ....29         3.10000
    ZZZZ0001  ....30         9.10000   ....36        43.00000
    ZZZZ0001  ....37        34.40000   ....38        15.60000
    ZZZZ0001  ....39        19.20000   ....40        44.90000
    ZZZZ0001  ....41         6.10000   ....45        13.20000
    ZZZZ0001  ....48        31.20000   ....50         2.50000
    ZZZZ0001  ....51      1080.00000   ....54     -1231.60000
    ZZZZ0001  ....56       107.00000
ENDATA
