NAME          AFIRO
ROWS
 E  R09     
 E  R10     
 L  X05     
 L  X21     
 E  R12     
 E  R13     
 L  X17     
 L  X18     
 L  X19     
 L  X20     
 E  R19     
 E  R20     
 L  X27     
 L  X44     
 E  R22     
 E  R23     
 L  X40     
 L  X41     
 L  X42     
 L  X43     
 L  X45     
 L  X46     
 L  X47     
 L  X48     
 L  X49     
 L  X50     
 L  X51     
 N  COST    
COLUMNS
    X01       X48            0.30100   R09           -1.00000
    X01       R10           -1.06000   X05            1.00000
    X02       X21           -1.00000   R09            1.00000
    X02       COST          -0.40000
    X03       X46           -1.00000   R09            1.00000
    X04       X50            1.00000   R10            1.00000
    X06       X49            0.30100   R12           -1.00000
    X06       R13           -1.06000   X17            1.00000
    X07       X49            0.31300   R12           -1.00000
    X07       R13           -1.06000   X18            1.00000
    X08       X49            0.31300   R12           -1.00000
    X08       R13           -0.96000   X19            1.00000
    X09       X49            0.32600   R12           -1.00000
    X09       R13           -0.86000   X20            1.00000
    X10       X45            2.36400   X17           -1.00000
    X11       X45            2.38600   X18           -1.00000
    X12       X45            2.40800   X19           -1.00000
    X13       X45            2.42900   X20           -1.00000
    X14       X21            1.40000   R12            1.00000
    X14       COST          -0.32000
    X15       X47           -1.00000   R12            1.00000
    X16       X51            1.00000   R13            1.00000
    X22       X46            0.10900   R19           -1.00000
    X22       R20           -0.43000   X27            1.00000
    X23       X44           -1.00000   R19            1.00000
    X23       COST          -0.60000
    X24       X48           -1.00000   R19            1.00000
    X25       X45           -1.00000   R19            1.00000
    X26       X50            1.00000   R20            1.00000
    X28       X47            0.10900   R22           -0.43000
    X28       R23            1.00000   X40            1.00000
    X29       X47            0.10800   R22           -0.43000
    X29       R23            1.00000   X41            1.00000
    X30       X47            0.10800   R22           -0.39000
    X30       R23            1.00000   X42            1.00000
    X31       X47            0.10700   R22           -0.37000
    X31       R23            1.00000   X43            1.00000
    X32       X45            2.19100   X40           -1.00000
    X33       X45            2.21900   X41           -1.00000
    X34       X45            2.24900   X42           -1.00000
    X35       X45            2.27900   X43           -1.00000
    X36       X44            1.40000   R23           -1.00000
    X36       COST          -0.48000
    X37       X49           -1.00000   R23            1.00000
    X38       X51            1.00000   R22            1.00000
    X39       R23            1.00000   COST          10.00000
RHS
    B         X50          310.00000   X51          300.00000
    B         X05           80.00000   X17           80.00000
    B         X27          500.00000   R23           44.00000
    B         X40          500.00000
ENDATA
