NAME          BLEND    BRUCE MURTAGHS BLENDING PROBLEM (MINIMIZE).
ROWS
 E  1       
 E  2       
 E  3       
 E  4       
 E  5       
 E  6       
 E  7       
 E  8       
 E  9       
 E  10      
 E  11      
 E  12      
 E  13      
 E  14      
 E  15      
 E  16      
 E  17      
 E  18      
 E  19      
 E  20      
 E  21      
 E  22      
 E  23      
 E  24      
 E  25      
 E  26      
 E  27      
 E  28      
 E  29      
 E  30      
 E  31      
 E  32      
 E  33      
 E  34      
 E  35      
 E  36      
 E  37      
 E  38      
 E  39      
 E  40      
 E  41      
 E  42      
 E  43      
 L  44      
 L  45      
 L  46      
 L  47      
 L  48      
 L  49      
 L  50      
 L  51      
 L  52      
 L  53      
 L  54      
 L  55      
 L  56      
 L  57      
 L  58      
 L  59      
 L  60      
 L  61      
 L  62      
 L  63      
 L  64      
 L  65      
 L  66      
 L  67      
 L  68      
 L  69      
 L  70      
 L  71      
 L  72      
 L  73      
 L  74      
 N  C       
COLUMNS
    1         2             -0.53700   3             -0.13100
    1         4             -0.11550   5             -0.03650
    1         6             -0.14300   7             -0.03700
    1         40             0.00300   41             0.05870
    1         42             0.15000   43             0.30200
    1         67             1.00000   C              3.20000
    2         1             -0.29310   3             -0.11700
    2         4             -0.06490   5             -0.12330
    2         6             -0.22170   8             -0.18000
    2         39             0.00420   40             0.00300
    2         41             0.10530   42             0.18500
    2         43             0.38400   50            -0.00862
    2         51            -0.00862   56            -0.01010
    2         57            -0.01010   68             1.00000
    2         C              2.87000
    3         2              1.00000   9             -0.02770
    3         10            -0.05630   11            -0.19900
    3         12            -0.68730   13            -0.01700
    3         40             0.01303   41             0.05060
    3         42             0.20900   43             0.49500
    3         65             1.00000
    4         1              1.00000   9             -0.01120
    4         10            -0.03780   11            -0.15020
    4         12            -0.79530   13            -0.00990
    4         40             0.01303   41             0.04480
    4         42             0.18500   43             0.72100
    4         65             1.00000
    5         9             -0.17500   10            -0.27000
    5         11            -0.02800   13            -0.45500
    5         21             1.00000   40             0.01303
    5         41             0.05060   42             0.20900
    5         43             0.49500
    6         9             -0.27100   10            -0.32850
    6         11            -0.02550   13            -0.26560
    6         18             1.00000   40             0.01303
    6         41             0.05060   42             0.20900
    6         43             0.49500
    7         9             -0.28360   10            -0.32850
    7         11            -0.02410   13            -0.25020
    7         17             1.00000   40             0.01303
    7         41             0.05060   42             0.20900
    7         43             0.49500
    8         12             1.00000   14            -1.00000
    8         39             0.03270   41             0.09400
    8         42             0.04500   43             0.79300
    8         C              0.00440
    9         15            -1.00000   22             1.00000
    10        16            -1.00000   22             1.00000
    11        14             1.00000   15            -1.00000
    12        14             1.00000   16            -1.00000
    13        15             1.00000   17            -0.05880
    13        19            -0.81450   23            -0.00910
    13        39            -0.82390   40             0.00810
    13        41            -0.21120   42             0.38700
    13        43             1.03000   69             1.30000
    13        C              0.07000
    14        16             1.00000   18            -0.04040
    14        20            -0.85640   23            -0.00690
    14        39            -0.76890   40             0.00630
    14        41            -0.15600   42             0.29700
    14        43             0.79200   69             1.00000
    14        C              0.03780
    15        5              1.00000   21            -0.33210
    15        22            -0.58750   23            -0.36200
    15        39             2.30000   41            -0.20490
    15        42             0.82600   43            14.61000
    15        65             1.00000   70             1.00000
    15        C              0.15500
    16        6              1.00000   21            -0.33210
    16        22            -0.58750   23            -0.36200
    16        39             2.30000   41            -0.20490
    16        42             0.82600   43            14.61000
    16        66             1.00000   70             1.00000
    16        C              0.15500
    17        4              1.00000   21            -0.24140
    17        22            -0.66270   23            -0.29300
    17        39             2.30000   41            -0.15310
    17        42             0.82600   43            14.61000
    17        65             1.00000   70             1.00000
    17        C              0.15500
    18        21            -0.24140   22            -0.66270
    18        23            -0.29300   28             1.00000
    18        39             2.30000   41            -0.15310
    18        42             0.82600   43            14.61000
    18        70             1.00000   C              0.15500
    19        5              1.00000   10            -0.01850
    19        13            -0.05680   24            -0.08060
    19        25            -0.06580   26            -0.03280
    19        27            -0.49340   28            -0.29220
    19        29            -0.00960   40            -0.06540
    19        41            -0.25350   42             0.63200
    19        43             0.68070   65             1.00000
    19        71             1.00000   C              0.05280
    20        6              1.00000   10            -0.01850
    20        13            -0.05680   24            -0.08060
    20        25            -0.06580   26            -0.03280
    20        27            -0.49340   28            -0.29220
    20        29            -0.00960   40            -0.06540
    20        41            -0.25350   42             0.63200
    20        43             0.68070   66             1.00000
    20        71             1.00000   C              0.05280
    21        4              1.00000   10            -0.01840
    21        13            -0.05640   24            -0.07800
    21        25            -0.06550   26            -0.03030
    21        27            -0.47500   28            -0.30500
    21        40            -0.06540   41            -0.27030
    21        42             0.63200   43             0.68070
    21        65             1.00000   71             1.00000
    21        C              0.05280
    22        3              1.00000   10            -0.01840
    22        13            -0.05640   24            -0.07800
    22        25            -0.06550   26            -0.03030
    22        27            -0.47500   28            -0.30500
    22        40            -0.06540   41            -0.27030
    22        42             0.63200   43             0.68070
    22        65             1.00000   71             1.00000
    22        C              0.05280
    23        13             0.76000   25             0.57140
    23        30            -1.00000   40             0.18690
    23        41             0.27960   42             2.24100
    23        43             2.76600   72             1.00000
    23        C              0.12800
    24        9             -0.05710   10            -0.01140
    24        13             0.65710   24             0.57140
    24        31            -1.00000   40             0.17240
    24        41             0.25790   42             2.06700
    24        43             2.55200   72             1.00000
    24        C              0.11800
    25        9             -1.00000   25             1.00000
    26        10            -1.00000   24             1.00000
    27        10            -1.00000   13             1.00000
    28        11             1.00000   32            -1.00000
    28        44            -7.95000   45            -8.70000
    28        46            -3.00000   47            14.00000
    28        48             1.00000   49            -1.00000
    29        23             1.00000   32            -1.00000
    29        44            -8.84000   45            -9.45000
    29        46            -3.00000   47            12.00000
    29        48             1.00000   49            -1.00000
    30        19             1.00000   32            -1.00000
    30        44            -9.43000   45            -9.57000
    30        46            -3.00000   47             3.50000
    30        48             0.23300   49            -0.35800
    31        20             1.00000   32            -1.00000
    31        44            -9.03000   45            -9.32000
    31        46            -3.00000   47             3.50000
    31        48             0.20500   49            -0.33300
    32        27             1.00000   32            -1.00000
    32        44            -9.23000   45            -9.22000
    32        46            -3.00000   47             6.00000
    32        48             0.38100   49            -0.50900
    33        30             1.00000   32            -1.00000
    33        44            -9.40000   45            -9.85000
    33        46            -3.00000   47             2.50000
    33        48             0.39000   49            -0.77000
    34        31             1.00000   32            -1.00000
    34        44            -9.74000   45           -10.10000
    34        46            -3.00000   47             3.30000
    34        48             0.23300   49            -0.58000
    35        10             1.00000   32            -1.00000
    35        44            -9.74000   45            -9.90000
    35        46            -3.00000   47            66.00000
    35        48             1.00000   49            -1.00000
    36        44            -0.49300   45            -0.16500
    36        46             1.00000   C              0.09240
    37        32             1.00000   44            10.03000
    37        45            10.03000   47            -9.50000
    37        48            -0.50000   49             0.50000
    37        73             0.64000   74             0.35000
    37        C             -5.36000
    38        11             1.00000   33            -1.00000
    38        50            -7.98000   51            -8.58000
    38        52            -3.00000   53            14.00000
    38        54             1.00000   55            -1.00000
    39        23             1.00000   33            -1.00000
    39        50            -8.87000   51            -9.33000
    39        52            -3.00000   53            12.00000
    39        54             1.00000   55            -1.00000
    40        19             1.00000   33            -1.00000
    40        50            -9.46000   51            -9.45000
    40        52            -3.00000   53             3.50000
    40        54             0.23300   55            -0.35800
    41        20             1.00000   33            -1.00000
    41        50            -9.06000   51            -9.20000
    41        52            -3.00000   53             3.50000
    41        54             0.20500   55            -0.33300
    42        27             1.00000   33            -1.00000
    42        50            -9.26000   51            -9.13000
    42        52            -3.00000   53             6.00000
    42        54             0.31800   55            -0.50900
    43        10             1.00000   33            -1.00000
    43        50            -9.77000   51            -9.78000
    43        52            -3.00000   53            66.00000
    43        54             1.00000   55            -1.00000
    44        50            -0.43500   51            -0.20800
    44        52             1.00000   C              0.09240
    45        33             1.00000   50             9.65000
    45        51             9.65000   53            -9.50000
    45        54            -0.50000   55             0.50000
    45        73            -0.36000   74             0.35000
    45        C             -5.08000
    46        11             1.00000   36            -1.00000
    46        56            -7.99000   57            -8.59000
    46        58            -3.00000   59            14.00000
    46        60             1.00000   61            -1.00000
    47        23             1.00000   36            -1.00000
    47        56            -8.88000   57            -9.34000
    47        58            -3.00000   59            12.00000
    47        60             1.00000   61            -1.00000
    48        19             1.00000   36            -1.00000
    48        56            -9.47000   57            -9.46000
    48        58            -3.00000   59             3.50000
    48        60             0.23300   61            -0.35800
    49        20             1.00000   36            -1.00000
    49        56            -9.07000   57            -9.21000
    49        58            -3.00000   59             3.50000
    49        60             0.20500   61            -0.33300
    50        27             1.00000   36            -1.00000
    50        56            -9.27000   57            -9.14000
    50        58            -3.00000   59             6.00000
    50        60             0.31800   61            -0.50900
    51        10             1.00000   36            -1.00000
    51        56            -9.78000   57            -9.79000
    51        58            -3.00000   59            66.00000
    51        60             1.00000   61            -1.00000
    52        56            -0.42600   57            -0.20400
    52        58             1.00000   C              0.09240
    53        36             1.00000   56             9.05000
    53        57             9.05000   59            -9.50000
    53        60            -0.50000   61             0.50000
    53        73            -0.36000   74            -0.65000
    53        C             -4.51000
    54        9             -1.00000   26             1.00000
    55        9              1.00000   37            -1.00000
    56        10             1.00000   37            -1.00000
    57        37             1.00000   C             -2.75000
    58        11             1.00000   38            -1.00000
    58        63           -14.00000   64            14.00000
    59        12             1.00000   38            -1.00000
    59        63            -0.80000   64             0.80000
    60        38             1.00000   63             2.00000
    60        64            -3.00000   C             -4.20000
    61        4              1.00000   34            -1.00000
    62        3              1.00000   34            -1.00000
    63        34             1.00000   65             1.00000
    63        C             -3.60000
    64        7              1.00000   35            -1.00000
    64        62            10.10000
    65        8              1.00000   35            -1.00000
    65        62            12.63000
    66        6              1.00000   35            -1.00000
    66        62             8.05000   66             1.00000
    67        5              1.00000   35            -1.00000
    67        62             6.90000   65             1.00000
    68        29             1.00000   35            -1.00000
    68        62             8.05000
    69        28             1.00000   35            -1.00000
    69        62             4.40000
    70        35             1.00000   62           -10.10000
    70        C             -2.00000
    71        39             1.00000   41            -0.32500
    72        13             1.00000   41            -4.15300
    73        10             1.00000   41            -4.31600
    74        9              1.00000   41            -3.81400
    75        25             1.00000   41            -3.80800
    76        24             1.00000   41            -4.44000
    77        40            -1.00000   41             1.42000
    77        C              0.04000
    78        40             1.00000
    79        10            -0.50000   13            -0.50000
    79        C              3.00000
    80        41            -1.00000   C              0.40000
    81        41             1.00000
    82        42            -1.00000   C              0.01320
    83        43            -1.00000   C              0.01000
RHS
              65               23.26   66                5.25
              67               26.32   68               21.05
              69               13.45   70                2.58
              71                 10.   72                 10.
ENDATA
