NAME          SHARE2B
ROWS
 N  000000  
 L  000004  
 L  000005  
 L  000006  
 L  000007  
 L  000008  
 L  000009  
 L  000010  
 L  000011  
 L  000012  
 E  000013  
 L  000014  
 L  000015  
 L  000016  
 L  000017  
 L  000018  
 L  000019  
 L  000020  
 L  000021  
 L  000022  
 E  000023  
 L  000024  
 L  000025  
 L  000026  
 L  000027  
 L  000028  
 L  000029  
 L  000030  
 L  000031  
 L  000032  
 E  000033  
 L  000034  
 L  000035  
 L  000036  
 L  000037  
 L  000038  
 L  000039  
 L  000040  
 L  000041  
 L  000042  
 E  000043  
 L  000044  
 L  000045  
 L  000046  
 L  000047  
 L  000048  
 L  000049  
 L  000050  
 L  000051  
 L  000052  
 E  000053  
 L  000054  
 L  000055  
 L  000056  
 L  000057  
 L  000058  
 L  000059  
 L  000060  
 L  000061  
 L  000062  
 E  000063  
 L  000064  
 L  000065  
 L  000066  
 L  000067  
 L  000068  
 L  000069  
 L  000070  
 L  000071  
 L  000072  
 L  000073  
 L  000074  
 L  000075  
 L  000076  
 L  000077  
 L  000078  
 L  000079  
 L  000080  
 L  000081  
 E  000082  
 E  000083  
 E  000084  
 E  000085  
 E  000086  
 E  000087  
 L  000088  
 L  000089  
 L  000090  
 L  000091  
 L  000092  
 L  000093  
 L  000094  
 L  000095  
 L  000096  
 L  000097  
 L  000098  
 E  000099  
COLUMNS
    010101    000004        65.00000   000005         1.00000
    010101    000006        -1.00000   000007        -1.00000
    010101    000008       -97.40000   000009       -99.90000
    010101    000010       -83.70000   000011       -85.00000
    010101    000013         1.00000
    010102    000004         5.50000   000005         0.68000
    010102    000006        -0.96000   000007        -1.00000
    010102    000008       -84.00000   000009       -88.10000
    010102    000010       -79.40000   000011       -83.20000
    010102    000013         1.00000   000064         1.00000
    010103    000004         0.80000   000007        -0.78000
    010103    000008       -87.90000   000009       -82.90000
    010103    000010       -74.60000   000011       -80.60000
    010103    000013         1.00000   000065         1.00000
    010104    000004         4.50000   000005         0.27000
    010104    000006        -0.97000   000007        -1.00000
    010104    000008       -97.90000   000009      -100.30000
    010104    000010       -95.00000   000011       -98.00000
    010104    000013         1.00000   000088         1.00000
    010105    000004         1.50000   000005         0.12000
    010105    000006        -0.36000   000007        -0.95000
    010105    000008       -60.60000   000009       -76.30000
    010105    000010       -68.60000   000011       -76.80000
    010105    000013         1.00000   000066         1.00000
    010106    000000         0.03000   000004         6.00000
    010106    000005         0.19000   000006        -0.35000
    010106    000007        -0.89000   000008       -94.80000
    010106    000009       -96.60000   000010       -83.80000
    010106    000011       -86.80000   000013         1.00000
    010106    000066         1.10000
    010107    000000         0.06000   000004         3.30000
    010107    000005         0.07000   000006        -0.29000
    010107    000007        -0.97000   000008       -97.90000
    010107    000009      -100.30000   000010       -95.00000
    010107    000011       -98.00000   000013         1.00000
    010107    000066         1.20000
    010108    000004         5.80000   000005         0.50000
    010108    000006        -0.62000   000007        -0.98000
    010108    000008       -96.50000   000009       -98.10000
    010108    000010       -80.80000   000011       -81.50000
    010108    000013         1.00000   000067         1.00000
    010120    000000         0.09000   000008        -2.10000
    010120    000009        -0.70000   000010        -2.30000
    010120    000011        -1.00000   000012         1.00000
    010131    000000        -3.80000   000004       -11.00000
    010131    000005        -0.50000   000006         0.50000
    010131    000007         0.90000   000008       100.00000
    010131    000009       100.00000   000010        90.00000
    010131    000011        90.00000   000012        -3.00000
    010131    000013        -1.00000   000082         1.00000
    010132    000000        -3.70000   000082        -1.00000
    010132    000083         1.00000
    010133    000000        -3.50000   000082        -1.00000
    010133    000084         1.00000
    010201    000014        65.00000   000015         1.00000
    010201    000016        -1.00000   000017        -1.00000
    010201    000018       -97.40000   000019       -99.90000
    010201    000020       -83.70000   000021       -85.00000
    010201    000023         1.00000
    010202    000014         5.50000   000015         0.57000
    010202    000016        -1.00000   000017        -1.00000
    010202    000018       -84.00000   000019       -88.10000
    010202    000020       -79.40000   000021       -83.20000
    010202    000023         1.00000   000064         1.00000
    010203    000014         0.80000   000016        -0.01000
    010203    000017        -0.98000   000018       -87.90000
    010203    000019       -82.90000   000020       -74.60000
    010203    000021       -80.60000   000023         1.00000
    010203    000065         1.00000
    010204    000014         1.50000   000015         0.12000
    010204    000016        -0.36000   000017        -0.95000
    010204    000018       -60.60000   000019       -76.30000
    010204    000020       -68.60000   000021       -76.80000
    010204    000023         1.00000   000066         1.00000
    010205    000000         0.10000   000014         2.70000
    010205    000015         0.13000   000016        -0.28000
    010205    000017        -0.79000   000018       -77.90000
    010205    000019       -81.40000   000020       -70.60000
    010205    000021       -74.00000   000023         1.00000
    010205    000069         1.00000
    010206    000014         5.80000   000015         0.46000
    010206    000016        -0.67000   000017        -1.00000
    010206    000018       -96.50000   000019       -98.10000
    010206    000020       -80.80000   000021       -81.50000
    010206    000023         1.00000   000067         1.00000
    010220    000000         0.09000   000018        -3.50000
    010220    000019        -1.90000   000020        -3.40000
    010220    000021        -1.80000   000022         1.00000
    010231    000000        -3.00000   000014       -11.00000
    010231    000015        -0.50000   000016         0.50000
    010231    000017         0.90000   000018        89.00000
    010231    000019        89.00000   000020        82.00000
    010231    000021        82.00000   000022        -3.00000
    010231    000023        -1.00000   000085         1.00000
    010231    000089        -0.25000
    010301    000024        70.00000   000025         1.00000
    010301    000026        -1.00000   000027        -1.00000
    010301    000028       -97.80000   000029      -102.30000
    010301    000030       -94.80000   000031       -99.80000
    010301    000033         1.00000
    010302    000024         9.50000   000025         0.70000
    010302    000026        -0.83000   000027        -1.00000
    010302    000028       -89.10000   000029       -92.00000
    010302    000030       -77.40000   000031       -80.10000
    010302    000033         1.00000   000068         1.00000
    010303    000024         2.70000   000025         0.13000
    010303    000026        -0.28000   000027        -0.79000
    010303    000028       -77.90000   000029       -81.40000
    010303    000030       -70.60000   000031       -74.00000
    010303    000033         1.00000   000069         1.00000
    010304    000024        10.80000   000025         0.97000
    010304    000026        -1.00000   000027        -1.00000
    010304    000028       -84.60000   000029       -89.70000
    010304    000030       -83.60000   000031       -89.40000
    010304    000033         1.00000   000070         1.00000
    010305    000024         1.50000   000025         0.12000
    010305    000026        -0.36000   000027        -0.95000
    010305    000028       -60.60000   000029       -76.30000
    010305    000030       -68.60000   000031       -76.80000
    010305    000033         1.00000   000071         1.00000
    010306    000000         0.06000   000024         6.20000
    010306    000025         0.19000   000026        -0.35000
    010306    000027        -0.89000   000028       -95.90000
    010306    000029       -97.60000   000030       -85.40000
    010306    000031       -87.80000   000033         1.00000
    010306    000071         1.20000
    010307    000000         0.03000   000024         6.00000
    010307    000025         0.19000   000026        -0.35000
    010307    000027        -0.89000   000028       -94.80000
    010307    000029       -96.60000   000030       -83.80000
    010307    000031       -86.80000   000033         1.00000
    010307    000071         1.10000
    010308    000000         0.10000   000024         4.50000
    010308    000025         0.27000   000026        -0.97000
    010308    000027        -1.00000   000028       -97.90000
    010308    000029      -100.30000   000030       -95.00000
    010308    000031       -98.00000   000033         1.00000
    010308    000088         1.00000
    010309    000000         0.10000   000024         5.50000
    010309    000025         0.68000   000026        -0.96000
    010309    000027        -1.00000   000028       -84.00000
    010309    000029       -88.10000   000030       -79.40000
    010309    000031       -83.20000   000033         1.00000
    010309    000064         1.00000
    010310    000000         0.10000   000024         6.50000
    010310    000025         0.48000   000026        -0.56000
    010310    000027        -0.97000   000028       -96.50000
    010310    000029       -97.10000   000030       -82.20000
    010310    000031       -83.30000   000033         1.00000
    010310    000067         1.00000
    010320    000000         0.09000   000028        -1.90000
    010320    000029        -0.90000   000030        -2.40000
    010320    000031        -0.90000   000032         1.00000
    010331    000000        -3.70000   000024       -11.00000
    010331    000025        -0.50000   000026         0.50000
    010331    000027         0.90000   000028       100.00000
    010331    000029       100.00000   000030        90.00000
    010331    000031        90.00000   000033        -1.00000
    010331    000032        -3.00000   000083         1.00000
    010333    000000        -3.50000   000083        -1.00000
    010333    000084         1.00000
    010401    000034        70.00000   000035         1.00000
    010401    000036        -1.00000   000037        -1.00000
    010401    000038       -97.80000   000039      -102.30000
    010401    000040       -94.80000   000041       -99.80000
    010401    000043         1.00000
    010402    000034         9.50000   000035         0.68000
    010402    000036        -0.90000   000037        -1.00000
    010402    000038       -89.10000   000039       -92.00000
    010402    000040       -77.40000   000041       -80.10000
    010402    000043         1.00000   000068         1.00000
    010403    000034         2.70000   000035         0.09000
    010403    000036        -0.37000   000037        -0.92000
    010403    000038       -77.90000   000039       -81.40000
    010403    000040       -70.60000   000041       -74.00000
    010403    000043         1.00000   000069         1.00000
    010404    000034        10.80000   000035         0.93000
    010404    000036        -1.00000   000037        -1.00000
    010404    000038       -84.60000   000039       -89.70000
    010404    000040       -83.60000   000041       -89.40000
    010404    000043         1.00000   000070         1.00000
    010405    000000         0.03000   000034         6.20000
    010405    000035         0.15000   000036        -0.45000
    010405    000037        -0.98000   000038       -95.90000
    010405    000039       -97.60000   000040       -85.40000
    010405    000041       -87.80000   000043         1.00000
    010405    000071         1.10000
    010406    000000         0.10000   000034         6.50000
    010406    000035         0.45000   000036        -0.63000
    010406    000037        -1.00000   000038       -96.50000
    010406    000039       -97.10000   000040       -82.20000
    010406    000041       -83.30000   000043         1.00000
    010406    000067         1.00000
    010407    000034         1.50000   000035         0.12000
    010407    000036        -0.36000   000037        -0.95000
    010407    000038       -60.60000   000039       -76.30000
    010407    000040       -68.60000   000041       -76.80000
    010407    000043         1.00000   000071         1.00000
    010408    000000         0.10000   000034         5.50000
    010408    000035         0.68000   000036        -0.96000
    010408    000037        -1.00000   000038       -84.00000
    010408    000039       -88.10000   000040       -79.40000
    010408    000041       -83.20000   000043         1.00000
    010408    000064         1.00000
    010420    000000         0.09000   000038        -3.90000
    010420    000039        -1.40000   000040        -3.50000
    010420    000041        -1.30000   000042         1.00000
    010431    000000        -2.90000   000034       -11.00000
    010431    000035        -0.50000   000036         0.50000
    010431    000037         0.90000   000038        89.00000
    010431    000039        89.00000   000040        82.00000
    010431    000041        82.00000   000042        -3.00000
    010431    000043        -1.00000   000086         1.00000
    010432    000000        -2.80000   000085         1.00000
    010432    000086        -1.00000   000089         0.75000
    010501    000044        56.00000   000045         1.00000
    010501    000046        -1.00000   000047        -1.00000
    010501    000048       -99.40000   000049      -103.00000
    010501    000050       -96.70000   000051      -101.20000
    010501    000053         1.00000
    010502    000044         1.80000   000047        -1.00000
    010502    000048       -87.90000   000049       -91.60000
    010502    000050       -88.10000   000051       -92.00000
    010502    000053         1.00000   000072         1.00000
    010503    000044         1.40000   000047        -0.54000
    010503    000048       -86.20000   000049       -90.00000
    010503    000050       -88.00000   000051       -91.30000
    010503    000053         1.00000   000073         1.00000
    010504    000044        10.60000   000045         0.68000
    010504    000046        -0.87000   000047        -1.00000
    010504    000048       -99.90000   000049      -100.40000
    010504    000050       -80.80000   000051       -81.70000
    010504    000053         1.00000   000074         1.00000
    010505    000044         2.50000   000047        -0.65000
    010505    000048       -89.60000   000049       -91.70000
    010505    000050       -79.30000   000051       -82.10000
    010505    000053         1.00000   000075         1.00000
    010506    000044        11.50000   000045         0.77000
    010506    000046        -0.93000   000047        -1.00000
    010506    000048       -79.50000   000049       -85.10000
    010506    000050       -80.20000   000051       -86.20000
    010506    000053         1.00000   000076         1.00000
    010507    000044         1.50000   000045         0.12000
    010507    000046        -0.36000   000047        -0.95000
    010507    000048       -60.60000   000049       -76.30000
    010507    000050       -68.60000   000051       -76.80000
    010507    000053         1.00000   000077         1.00000
    010508    000000         0.03000   000044         4.20000
    010508    000045         0.08000   000046        -0.30000
    010508    000047        -0.91000   000048       -99.50000
    010508    000049       -99.90000   000050       -87.60000
    010508    000051       -89.00000   000053         1.00000
    010508    000077         1.10000
    010509    000000         0.06000   000044         4.30000
    010509    000045         0.07000   000046        -0.27000
    010509    000047        -0.90000   000048      -101.40000
    010509    000049      -101.50000   000050       -89.00000
    010509    000051       -90.20000   000053         1.00000
    010509    000077         1.20000
    010520    000000         0.09000   000048        -1.60000
    010520    000049        -0.80000   000050        -2.00000
    010520    000051        -0.80000   000052         1.00000
    010531    000000        -3.50000   000044       -10.00000
    010531    000045        -0.50000   000046         0.50000
    010531    000047         0.90000   000048       101.00000
    010531    000049       101.00000   000050        91.00000
    010531    000051        91.00000   000052        -3.00000
    010531    000053        -1.00000   000084         1.00000
    010601    000054        56.00000   000055         1.00000
    010601    000056        -1.00000   000057        -1.00000
    010601    000058       -97.70000   000059      -100.60000
    010601    000060       -94.50000   000061       -98.50000
    010601    000063         1.00000
    010602    000054        10.60000   000055         0.39000
    010602    000056        -1.00000   000057        -1.00000
    010602    000058       -98.20000   000059       -98.00000
    010602    000060       -78.60000   000061       -79.00000
    010602    000063         1.00000   000074         1.00000
    010603    000054         2.50000   000057        -0.87000
    010603    000058       -87.90000   000059       -89.30000
    010603    000060       -77.10000   000061       -79.40000
    010603    000063         1.00000   000075         1.00000
    010604    000054         3.60000   000055         0.27000
    010604    000056        -1.00000   000057        -1.00000
    010604    000058       -78.80000   000059       -82.70000
    010604    000060       -75.10000   000061       -80.50000
    010604    000063         1.00000   000078         1.00000
    010605    000054        11.50000   000055         0.73000
    010605    000056        -0.98000   000057        -1.00000
    010605    000058       -78.20000   000059       -82.70000
    010605    000060       -78.00000   000061       -83.50000
    010605    000063         1.00000   000076         1.00000
    010606    000054         2.00000   000056        -0.38000
    010606    000057        -1.00000   000058       -66.90000
    010606    000059       -71.40000   000060       -67.60000
    010606    000061       -73.80000   000063         1.00000
    010606    000079         1.00000
    010607    000054        14.60000   000055         1.00000
    010607    000056        -1.00000   000057        -1.00000
    010607    000058       -74.70000   000059       -79.80000
    010607    000060       -77.30000   000061       -83.00000
    010607    000063         1.00000   000080         1.00000
    010608    000054         6.10000   000055         0.33000
    010608    000056        -0.65000   000057        -1.00000
    010608    000058       -70.70000   000059       -75.90000
    010608    000060       -69.60000   000061       -75.30000
    010608    000063         1.00000   000081         1.00000
    010609    000000         0.03000   000054         4.20000
    010609    000055         0.04000   000056        -0.36000
    010609    000057        -0.98000   000058       -97.80000
    010609    000059       -97.50000   000060       -85.40000
    010609    000061       -86.30000   000063         1.00000
    010609    000077         1.10000
    010620    000000         0.09000   000058        -3.30000
    010620    000059        -1.60000   000060        -4.20000
    010620    000061        -1.70000   000062         1.00000
    010631    000000        -2.70000   000054       -11.00000
    010631    000055        -0.50000   000056         0.50000
    010631    000057         0.90000   000058        89.00000
    010631    000059        89.00000   000060        82.00000
    010631    000061        82.00000   000062        -3.00000
    010631    000063        -1.00000   000087         1.00000
    010632    000000        -2.70000   000085         1.00000
    010632    000087        -1.00000   000089         0.75000
    010633    000000        -2.70000   000086         1.00000
    010633    000087        -1.00000
    010701    000090        56.00000   000091         1.00000
    010701    000092        -1.00000   000093        -1.00000
    010701    000094       -97.70000   000095      -100.60000
    010701    000096       -94.50000   000097       -98.50000
    010701    000099         1.00000
    010702    000074         1.00000   000090        10.60000
    010702    000091         0.39000   000092        -1.00000
    010702    000093        -1.00000   000094       -98.20000
    010702    000095       -98.00000   000096       -78.60000
    010702    000097       -79.00000   000099         1.00000
    010703    000075         1.00000   000090         2.50000
    010703    000093        -0.87000   000094       -87.90000
    010703    000095       -89.30000   000096       -77.10000
    010703    000097       -79.40000   000099         1.00000
    010704    000078         1.00000   000090         3.60000
    010704    000091         0.27000   000092        -1.00000
    010704    000093        -1.00000   000094       -78.80000
    010704    000095       -82.70000   000096       -75.10000
    010704    000097       -80.50000   000099         1.00000
    010705    000076         1.00000   000090        11.50000
    010705    000091         0.73000   000092        -0.98000
    010705    000093        -1.00000   000094       -78.20000
    010705    000095       -82.70000   000096       -78.00000
    010705    000097       -83.50000   000099         1.00000
    010706    000079         1.00000   000090         2.00000
    010706    000092        -0.38000   000093        -1.00000
    010706    000094       -66.90000   000095       -71.40000
    010706    000096       -67.60000   000097       -73.80000
    010706    000099         1.00000
    010707    000080         1.00000   000090        14.60000
    010707    000091         1.00000   000092        -1.00000
    010707    000093        -1.00000   000094       -74.70000
    010707    000095       -79.80000   000096       -77.30000
    010707    000097       -83.00000   000099         1.00000
    010708    000000         0.03000   000077         1.10000
    010708    000090         4.20000   000091         0.04000
    010708    000092        -0.36000   000093        -0.98000
    010708    000094       -97.80000   000095       -97.50000
    010708    000096       -85.40000   000097       -86.30000
    010708    000099         1.00000
    010709    000000         0.07000   000077         1.20000
    010709    000090         4.30000   000091         0.07000
    010709    000092        -0.27000   000093        -0.90000
    010709    000094      -101.40000   000095      -101.50000
    010709    000096       -89.00000   000097       -90.20000
    010709    000099         1.00000
    010720    000000         0.09000   000094        -3.30000
    010720    000095        -1.60000   000096        -4.20000
    010720    000097        -1.70000   000098         1.00000
    010731    000000        -2.70000   000090       -10.00000
    010731    000091        -0.50000   000092         0.50000
    010731    000093         0.90000   000094        90.00000
    010731    000095        90.00000   000096        83.00000
    010731    000097        83.00000   000098        -3.00000
    010731    000099        -1.00000
RHS
    RHS       000064              7.   000065              7.
    RHS       000066              7.   000067             21.
    RHS       000068              3.   000069              3.
    RHS       000070              3.   000071              7.
    RHS       000072             1.5   000073             1.5
    RHS       000074             10.   000075             10.
    RHS       000076             8.5   000077             13.
    RHS       000078             1.5   000079             1.5
    RHS       000080              1.   000081              1.
    RHS       000082             15.   000083             15.
    RHS       000084             20.   000085             20.
    RHS       000086             15.   000088              1.
ENDATA
