NAME          refinery_demo
OBJSENSE
 MAX
ROWS
 N  PROFIT
 L  CRUDE_MAX
 G  CRUDE_MIN
 L  PROCESS_CAP
 G  DIESEL_MIN
 G  NAPHTHA_MIN
COLUMNS
    GASOLINE  PROFIT    45.0      CRUDE_MAX   1.0
    GASOLINE  CRUDE_MIN 1.0       PROCESS_CAP 1.0
    DIESEL    PROFIT    40.0      CRUDE_MAX   1.0
    DIESEL    CRUDE_MIN 1.0       PROCESS_CAP 1.2
    DIESEL    DIESEL_MIN 1.0
    NAPHTHA   PROFIT    28.0      CRUDE_MAX   1.0
    NAPHTHA   CRUDE_MIN 1.0       PROCESS_CAP 0.8
    NAPHTHA   NAPHTHA_MIN 1.0
RHS
    RHS1      CRUDE_MAX 100.0     CRUDE_MIN   60.0
    RHS1      PROCESS_CAP 94.0    DIESEL_MIN  20.0
    RHS1      NAPHTHA_MIN 10.0
BOUNDS
 LO BND       GASOLINE  0.0
 LO BND       DIESEL    0.0
 LO BND       NAPHTHA   0.0
ENDATA
